parte1/ss2.lp
\* Problem: ss2 *\

Minimize
 deadline_not_accomplished: + y(1) + y(2) + y(3) + y(4) + y(5) + y(6)

Subject To
 loop(1,2): + x(1,2) + x(2,1) = 1
 loop(1,3): + x(1,3) + x(3,1) = 1
 loop(1,4): + x(1,4) + x(4,1) = 1
 loop(1,5): + x(1,5) + x(5,1) = 1
 loop(1,6): + x(1,6) + x(6,1) = 1
 loop(2,1): + x(1,2) + x(2,1) = 1
 loop(2,3): + x(2,3) + x(3,2) = 1
 loop(2,4): + x(2,4) + x(4,2) = 1
 loop(2,5): + x(2,5) + x(5,2) = 1
 loop(2,6): + x(2,6) + x(6,2) = 1
 loop(3,1): + x(1,3) + x(3,1) = 1
 loop(3,2): + x(2,3) + x(3,2) = 1
 loop(3,4): + x(3,4) + x(4,3) = 1
 loop(3,5): + x(3,5) + x(5,3) = 1
 loop(3,6): + x(3,6) + x(6,3) = 1
 loop(4,1): + x(1,4) + x(4,1) = 1
 loop(4,2): + x(2,4) + x(4,2) = 1
 loop(4,3): + x(3,4) + x(4,3) = 1
 loop(4,5): + x(4,5) + x(5,4) = 1
 loop(4,6): + x(4,6) + x(6,4) = 1
 loop(5,1): + x(1,5) + x(5,1) = 1
 loop(5,2): + x(2,5) + x(5,2) = 1
 loop(5,3): + x(3,5) + x(5,3) = 1
 loop(5,4): + x(4,5) + x(5,4) = 1
 loop(5,6): + x(5,6) + x(6,5) = 1
 loop(6,1): + x(1,6) + x(6,1) = 1
 loop(6,2): + x(2,6) + x(6,2) = 1
 loop(6,3): + x(3,6) + x(6,3) = 1
 loop(6,4): + x(4,6) + x(6,4) = 1
 loop(6,5): + x(5,6) + x(6,5) = 1
 order(1,2): + x(1,2) = 1
 order(1,3): + x(1,3) = 1
 order(2,4): + x(2,4) = 1
 order(3,4): + x(3,4) = 1
 order(4,5): + x(4,5) = 1
 order(5,6): + x(5,6) = 1
 min_end(1): - E(1) <= -1
 min_end(2): - E(2) <= -1
 min_end(3): - E(3) <= -1
 min_end(4): - E(4) <= -2
 min_end(5): - E(5) <= -1
 min_end(6): - E(6) <= -8
 ending1(1,2): + 200000 x(1,2) + E(1) - E(2) <= 199999
 ending1(1,3): + 200000 x(1,3) + E(1) - E(3) <= 199999
 ending1(1,4): + 200000 x(1,4) + E(1) - E(4) <= 199998
 ending1(1,5): + 200000 x(1,5) + E(1) - E(5) <= 199999
 ending1(1,6): + 200000 x(1,6) + E(1) - E(6) <= 199992
 ending1(2,1): + 200000 x(2,1) - E(1) + E(2) <= 199999
 ending1(2,3): + 200000 x(2,3) + E(2) - E(3) <= 199999
 ending1(2,4): + 200000 x(2,4) + E(2) - E(4) <= 199998
 ending1(2,5): + 200000 x(2,5) + E(2) - E(5) <= 199999
 ending1(2,6): + 200000 x(2,6) + E(2) - E(6) <= 199992
 ending1(3,1): + 200000 x(3,1) - E(1) + E(3) <= 199999
 ending1(3,2): + 200000 x(3,2) - E(2) + E(3) <= 199999
 ending1(3,4): + 200000 x(3,4) + E(3) - E(4) <= 199998
 ending1(3,5): + 200000 x(3,5) + E(3) - E(5) <= 199999
 ending1(3,6): + 200000 x(3,6) + E(3) - E(6) <= 199992
 ending1(4,1): + 200000 x(4,1) - E(1) + E(4) <= 199999
 ending1(4,2): + 200000 x(4,2) - E(2) + E(4) <= 199999
 ending1(4,3): + 200000 x(4,3) - E(3) + E(4) <= 199999
 ending1(4,5): + 200000 x(4,5) + E(4) - E(5) <= 199999
 ending1(4,6): + 200000 x(4,6) + E(4) - E(6) <= 199992
 ending1(5,1): + 200000 x(5,1) - E(1) + E(5) <= 199999
 ending1(5,2): + 200000 x(5,2) - E(2) + E(5) <= 199999
 ending1(5,3): + 200000 x(5,3) - E(3) + E(5) <= 199999
 ending1(5,4): + 200000 x(5,4) - E(4) + E(5) <= 199998
 ending1(5,6): + 200000 x(5,6) + E(5) - E(6) <= 199992
 ending1(6,1): + 200000 x(6,1) - E(1) + E(6) <= 199999
 ending1(6,2): + 200000 x(6,2) - E(2) + E(6) <= 199999
 ending1(6,3): + 200000 x(6,3) - E(3) + E(6) <= 199999
 ending1(6,4): + 200000 x(6,4) - E(4) + E(6) <= 199998
 ending1(6,5): + 200000 x(6,5) - E(5) + E(6) <= 199999
 ending2(1,2): - 200000 x(1,2) - E(1) + E(2) <= -1
 ending2(1,3): - 200000 x(1,3) - E(1) + E(3) <= -1
 ending2(1,4): - 200000 x(1,4) - E(1) + E(4) <= -1
 ending2(1,5): - 200000 x(1,5) - E(1) + E(5) <= -1
 ending2(1,6): - 200000 x(1,6) - E(1) + E(6) <= -1
 ending2(2,1): - 200000 x(2,1) + E(1) - E(2) <= -1
 ending2(2,3): - 200000 x(2,3) - E(2) + E(3) <= -1
 ending2(2,4): - 200000 x(2,4) - E(2) + E(4) <= -1
 ending2(2,5): - 200000 x(2,5) - E(2) + E(5) <= -1
 ending2(2,6): - 200000 x(2,6) - E(2) + E(6) <= -1
 ending2(3,1): - 200000 x(3,1) + E(1) - E(3) <= -1
 ending2(3,2): - 200000 x(3,2) + E(2) - E(3) <= -1
 ending2(3,4): - 200000 x(3,4) - E(3) + E(4) <= -1
 ending2(3,5): - 200000 x(3,5) - E(3) + E(5) <= -1
 ending2(3,6): - 200000 x(3,6) - E(3) + E(6) <= -1
 ending2(4,1): - 200000 x(4,1) + E(1) - E(4) <= -2
 ending2(4,2): - 200000 x(4,2) + E(2) - E(4) <= -2
 ending2(4,3): - 200000 x(4,3) + E(3) - E(4) <= -2
 ending2(4,5): - 200000 x(4,5) - E(4) + E(5) <= -2
 ending2(4,6): - 200000 x(4,6) - E(4) + E(6) <= -2
 ending2(5,1): - 200000 x(5,1) + E(1) - E(5) <= -1
 ending2(5,2): - 200000 x(5,2) + E(2) - E(5) <= -1
 ending2(5,3): - 200000 x(5,3) + E(3) - E(5) <= -1
 ending2(5,4): - 200000 x(5,4) + E(4) - E(5) <= -1
 ending2(5,6): - 200000 x(5,6) - E(5) + E(6) <= -1
 ending2(6,1): - 200000 x(6,1) + E(1) - E(6) <= -8
 ending2(6,2): - 200000 x(6,2) + E(2) - E(6) <= -8
 ending2(6,3): - 200000 x(6,3) + E(3) - E(6) <= -8
 ending2(6,4): - 200000 x(6,4) + E(4) - E(6) <= -8
 ending2(6,5): - 200000 x(6,5) + E(5) - E(6) <= -8
 late(1): - E(1) + 200000 y(1) >= -1
 late(2): - E(2) + 200000 y(2) >= -4
 late(3): - E(3) + 200000 y(3) >= -2
 late(4): - E(4) + 200000 y(4) >= -10
 late(5): - E(5) + 200000 y(5) >= -10
 late(6): - E(6) + 200000 y(6) >= -8

Bounds
 0 <= x(1,2) <= 1
 0 <= x(2,1) <= 1
 0 <= x(1,3) <= 1
 0 <= x(3,1) <= 1
 0 <= x(1,4) <= 1
 0 <= x(4,1) <= 1
 0 <= x(1,5) <= 1
 0 <= x(5,1) <= 1
 0 <= x(1,6) <= 1
 0 <= x(6,1) <= 1
 0 <= x(2,3) <= 1
 0 <= x(3,2) <= 1
 0 <= x(2,4) <= 1
 0 <= x(4,2) <= 1
 0 <= x(2,5) <= 1
 0 <= x(5,2) <= 1
 0 <= x(2,6) <= 1
 0 <= x(6,2) <= 1
 0 <= x(3,4) <= 1
 0 <= x(4,3) <= 1
 0 <= x(3,5) <= 1
 0 <= x(5,3) <= 1
 0 <= x(3,6) <= 1
 0 <= x(6,3) <= 1
 0 <= x(4,5) <= 1
 0 <= x(5,4) <= 1
 0 <= x(4,6) <= 1
 0 <= x(6,4) <= 1
 0 <= x(5,6) <= 1
 0 <= x(6,5) <= 1
 0 <= y(1) <= 1
 0 <= y(2) <= 1
 0 <= y(3) <= 1
 0 <= y(4) <= 1
 0 <= y(5) <= 1
 0 <= y(6) <= 1

Generals
 x(1,2)
 x(2,1)
 x(1,3)
 x(3,1)
 x(1,4)
 x(4,1)
 x(1,5)
 x(5,1)
 x(1,6)
 x(6,1)
 x(2,3)
 x(3,2)
 x(2,4)
 x(4,2)
 x(2,5)
 x(5,2)
 x(2,6)
 x(6,2)
 x(3,4)
 x(4,3)
 x(3,5)
 x(5,3)
 x(3,6)
 x(6,3)
 x(4,5)
 x(5,4)
 x(4,6)
 x(6,4)
 x(5,6)
 x(6,5)
 E(1)
 E(2)
 E(3)
 E(4)
 E(5)
 E(6)
 y(1)
 y(2)
 y(3)
 y(4)
 y(5)
 y(6)

End
